WARNING: for repeatability, setting FPU to use double precision
============================[ Problem Statistics ]=============================
|                                                                             |
|  Number of variables:           100                                         |
|  Number of clauses:             449                                         |
|  Parse time:                   0.00 s                                       |
|  Eliminated clauses:           0.00 Mb                                      |
|  Simplification time:          0.00 s                                       |
|                                                                             |
============================[ Search Statistics ]==============================
| Conflicts |          ORIGINAL         |          LEARNT          | Progress |
|           |    Vars  Clauses Literals |    Limit  Clauses Lit/Cl |          |
===============================================================================
|       100 |      98      447     1352 |      163      100      7 |  0.010 % |
|       250 |      98      447     1352 |      180      167      7 |  0.010 % |
|       475 |      98      447     1352 |      198      103      6 |  0.020 % |
===============================================================================
restarts              : 4
conflicts             : 492            (100778 /sec)
decisions             : 592            (0.00 % random) (121262 /sec)
propagations          : 11759          (2408644 /sec)
conflict literals     : 3364           (20.96 % deleted)
Memory used           : 13.00 MB
CPU time              : 0.004882 s

SATISFIABLE
